<?xml version = "1.0" standalone="yes"?>
<!-- This file has been generated by DOcplex version 2.23.222  -->
<CPLEXSolution version="1.0">
 <header
   problemName="CVRP"
   objectiveValue="13126.8"
  />
 <variables>
  <variable name="x_0_1" index="0" value="1.00000"/>
  <variable name="x_0_4" index="3" value="1.00000"/>
  <variable name="x_0_5" index="4" value="1.00000"/>
  <variable name="x_0_7" index="6" value="1.00000"/>
  <variable name="x_0_8" index="7" value="1.00000"/>
  <variable name="x_0_9" index="8" value="1.00000"/>
  <variable name="x_0_10" index="9" value="1.00000"/>
  <variable name="x_0_11" index="10" value="1.00000"/>
  <variable name="x_0_12" index="11" value="1.00000"/>
  <variable name="x_0_15" index="14" value="1.00000"/>
  <variable name="x_0_17" index="16" value="1.00000"/>
  <variable name="x_0_18" index="17" value="1.00000"/>
  <variable name="x_0_20" index="19" value="1.00000"/>
  <variable name="x_0_21" index="20" value="1.00000"/>
  <variable name="x_1_22" index="44" value="1.00000"/>
  <variable name="x_2_0" index="46" value="1.00000"/>
  <variable name="x_3_0" index="69" value="1.00000"/>
  <variable name="x_4_0" index="92" value="1.00000"/>
  <variable name="x_5_2" index="117" value="1.00000"/>
  <variable name="x_6_0" index="138" value="1.00000"/>
  <variable name="x_7_0" index="161" value="1.00000"/>
  <variable name="x_8_0" index="184" value="1.00000"/>
  <variable name="x_9_0" index="207" value="1.00000"/>
  <variable name="x_10_16" index="245" value="1.00000"/>
  <variable name="x_11_0" index="253" value="1.00000"/>
  <variable name="x_12_19" index="294" value="1.00000"/>
  <variable name="x_13_6" index="305" value="1.00000"/>
  <variable name="x_14_23" index="344" value="1.00000"/>
  <variable name="x_15_13" index="358" value="1.00000"/>
  <variable name="x_16_0" index="368" value="1.00000"/>
  <variable name="x_17_3" index="394" value="1.00000"/>
  <variable name="x_18_0" index="414" value="1.00000"/>
  <variable name="x_19_0" index="437" value="1.00000"/>
  <variable name="x_20_0" index="460" value="1.00000"/>
  <variable name="x_21_14" index="497" value="1.00000"/>
  <variable name="x_22_0" index="506" value="1.00000"/>
  <variable name="x_23_0" index="529" value="1.00000"/>
  <variable name="u_1" index="552" value="20.00000"/>
  <variable name="u_2" index="553" value="73.00000"/>
  <variable name="u_3" index="554" value="68.00000"/>
  <variable name="u_4" index="555" value="63.00000"/>
  <variable name="u_5" index="556" value="49.00000"/>
  <variable name="u_6" index="557" value="66.00000"/>
  <variable name="u_7" index="558" value="73.00000"/>
  <variable name="u_8" index="559" value="73.00000"/>
  <variable name="u_9" index="560" value="71.00000"/>
  <variable name="u_10" index="561" value="40.00000"/>
  <variable name="u_11" index="562" value="64.00000"/>
  <variable name="u_12" index="563" value="56.00000"/>
  <variable name="u_13" index="564" value="63.00000"/>
  <variable name="u_14" index="565" value="20.00000"/>
  <variable name="u_15" index="566" value="39.00000"/>
  <variable name="u_16" index="567" value="71.00000"/>
  <variable name="u_17" index="568" value="17.00000"/>
  <variable name="u_18" index="569" value="59.00000"/>
  <variable name="u_19" index="570" value="72.00000"/>
  <variable name="u_20" index="571" value="65.00000"/>
  <variable name="u_21" index="572" value="19.00000"/>
  <variable name="u_22" index="573" value="73.00000"/>
  <variable name="u_23" index="574" value="73.00000"/>
 </variables>
</CPLEXSolution>
